32	4
10	10	10	10
0	0	0	0	0	14	5	4	3	14	8	7	2	10	19	15	13	12	6	31
9	1	1	1	0	8	17	18	22	23	24	25	26	30
7	3	2	1	0	7	11	16	21	22	25	26	29
2	0	4	5	1	4	9	16	23	27
9	2	8	1	3	5	16	18	22	24	28
4	5	5	0	3	5	20	21	22	23	25
8	4	5	0	2	5	20	21	22	24	25
7	2	3	6	0	3	17	20	22
5	4	5	5	1	3	20	24	26
2	4	0	6	4	3	20	21	23
9	4	0	3	3	2	20	23
1	5	1	0	3	3	20	24	25
5	3	0	2	5	2	21	23
2	5	4	7	8	2	20	22
2	5	5	6	1	2	20	21
7	4	2	0	4	1	20
3	8	3	2	1	1	21
7	5	5	0	6	1	20
9	0	6	6	4	1	20
7	8	3	5	2	1	32
7	2	0	2	4	1	32
1	3	4	3	0	1	32
7	1	5	2	5	1	32
8	1	7	4	5	1	32
7	2	5	5	5	1	32
4	2	4	8	0	1	32
3	0	4	3	4	1	32
8	3	2	2	0	1	32
3	6	1	4	5	1	32
2	1	4	7	5	1	32
10	0	2	2	4	1	32
0	0	0	0	0	0
